c Generated map
c Size: 9 * 9, weights in range: 1 to 10, walls: True, with ratio 0.1
c dim 2 of 7
c
p sp 81 114
c graph contains 81 nodes and 114 arcs
c
a 1 10 3
a 10 1 3
a 1 2 8
a 2 1 8
a 2 11 7
a 11 2 7
a 2 3 10
a 3 2 10
a 3 4 6
a 4 3 6
a 4 13 6
a 13 4 6
a 4 5 6
a 5 4 6
a 5 14 1
a 14 5 1
a 5 6 2
a 6 5 2
a 6 15 2
a 15 6 2
a 6 7 1
a 7 6 1
a 7 16 6
a 16 7 6
a 7 8 10
a 8 7 10
a 8 17 3
a 17 8 3
a 8 9 4
a 9 8 4
a 9 18 10
a 18 9 10
a 10 11 6
a 11 10 6
a 11 20 3
a 20 11 3
a 13 22 7
a 22 13 7
a 13 14 9
a 14 13 9
a 14 23 7
a 23 14 7
a 14 15 5
a 15 14 5
a 15 24 1
a 24 15 1
a 15 16 6
a 16 15 6
a 16 25 2
a 25 16 2
a 16 17 9
a 17 16 9
a 17 26 6
a 26 17 6
a 17 18 10
a 18 17 10
a 18 27 3
a 27 18 3
a 20 29 9
a 29 20 9
a 20 21 7
a 21 20 7
a 21 22 8
a 22 21 8
a 22 31 9
a 31 22 9
a 22 23 7
a 23 22 7
a 23 32 3
a 32 23 3
a 23 24 2
a 24 23 2
a 24 33 5
a 33 24 5
a 24 25 7
a 25 24 7
a 25 34 5
a 34 25 5
a 25 26 10
a 26 25 10
a 26 35 5
a 35 26 5
a 26 27 9
a 27 26 9
a 27 36 4
a 36 27 4
a 28 29 6
a 29 28 6
a 29 38 5
a 38 29 5
a 31 40 4
a 40 31 4
a 31 32 8
a 32 31 8
a 32 41 6
a 41 32 6
a 32 33 3
a 33 32 3
a 33 42 3
a 42 33 3
a 33 34 3
a 34 33 3
a 34 35 7
a 35 34 7
a 35 44 9
a 44 35 9
a 35 36 9
a 36 35 9
a 36 45 2
a 45 36 2
a 38 47 7
a 47 38 7
a 38 39 4
a 39 38 4
a 39 40 2
a 40 39 2
a 40 49 2
a 49 40 2
a 40 41 4
a 41 40 4
a 41 50 2
a 50 41 2
a 41 42 6
a 42 41 6
a 42 51 2
a 51 42 2
a 44 53 1
a 53 44 1
a 44 45 5
a 45 44 5
a 45 54 8
a 54 45 8
a 46 55 6
a 55 46 6
a 46 47 1
a 47 46 1
a 49 58 3
a 58 49 3
a 49 50 10
a 50 49 10
a 50 59 9
a 59 50 9
a 50 51 9
a 51 50 9
a 51 60 4
a 60 51 4
a 51 52 4
a 52 51 4
a 52 61 1
a 61 52 1
a 52 53 2
a 53 52 2
a 53 62 8
a 62 53 8
a 53 54 6
a 54 53 6
a 54 63 5
a 63 54 5
a 55 64 5
a 64 55 5
a 57 66 9
a 66 57 9
a 57 58 5
a 58 57 5
a 58 67 9
a 67 58 9
a 58 59 9
a 59 58 9
a 59 68 2
a 68 59 2
a 59 60 9
a 60 59 9
a 60 69 9
a 69 60 9
a 60 61 6
a 61 60 6
a 61 62 6
a 62 61 6
a 62 71 5
a 71 62 5
a 62 63 6
a 63 62 6
a 63 72 3
a 72 63 3
a 64 73 8
a 73 64 8
a 64 65 2
a 65 64 2
a 65 74 8
a 74 65 8
a 65 66 10
a 66 65 10
a 66 75 10
a 75 66 10
a 66 67 5
a 67 66 5
a 67 76 3
a 76 67 3
a 67 68 6
a 68 67 6
a 68 77 4
a 77 68 4
a 68 69 7
a 69 68 7
a 69 78 9
a 78 69 9
a 71 80 1
a 80 71 1
a 71 72 2
a 72 71 2
a 72 81 3
a 81 72 3
a 73 74 1
a 74 73 1
a 74 75 6
a 75 74 6
a 75 76 7
a 76 75 7
a 76 77 6
a 77 76 6
a 77 78 1
a 78 77 1
a 78 79 5
a 79 78 5
a 79 80 9
a 80 79 9
a 80 81 5
a 81 80 5
